/*********************************************
 * OPL 12.6.0.0 Data
 * Author: QZ61P8
 * Creation Date: 10.07.2014 at 08:59:12
 *********************************************/


nNetworks = 1;
nTime = 100;
nInterfaceTypes = 2;
nFlows = 16;

//channel model: generated Fri May 27 12:35:26 CEST 2016
availChunkBuckets = //[Networks, Time]  
[
	[26, 26, 26, 26, 26, 26, 26, 26, 26, 26, 26, 26, 26, 26, 26, 26, 26, 26, 26, 26, 26, 26, 26, 26, 26, 26, 26, 26, 26, 26, 26, 26, 26, 26, 26, 26, 26, 26, 26, 26, 26, 26, 26, 26, 26, 26, 26, 26, 26, 26, 26, 26, 26, 26, 26, 26, 26, 26, 26, 26, 26, 26, 26, 26, 26, 26, 26, 26, 26, 26, 26, 26, 26, 26, 26, 26, 26, 26, 26, 26, 26, 26, 26, 26, 26, 26, 26, 26, 26, 26, 26, 26, 26, 26, 26, 26, 26, 26, 26, 26]
];
	
network_cost = //[Networks] 
	[16];				//static cost per channel (change later to more realistic model)
network_lcy =
	[12];
network_jit =
	[8];	

network_type= //[Networks] 				//each channel has a specific type; e.g. WiFi, LTE..
	[2];		
nClientInterfaces = //[InterfaceTypes]
	[1, 1];	

//requests: generated Fri May 27 12:35:26 CEST 2016
nChunks = 				[1100, 2420, 660, 2200, 400, 880, 240, 800, 1050, 2310, 630, 2100, 1000, 2200, 600, 2000];		//[Flows]		
deadline= 				[84, 54, 90, 35, 76, 68, 56, 18, 97, 77, 90, 52, 90, 82, 67, 63];		//[Flows] 
prefStartTime = 		[34, 0, 48, 27, 26, 0, 0, 14, 47, 0, 44, 45, 40, 0, 41, 56];		//[Flows]
tpMaxWindow = 			[1, 1, 1, 1, 1, 1, 1, 1, 1, 1, 1, 1, 1, 1, 1, 1];		//[Flows]	//0 says not relevant/no maximum transfer rate; upper throughput limit
tpMaxChunks = 			[100000, 100000, 15, 100000, 100000, 100000, 4, 100000, 100000, 100000, 13, 100000, 100000, 100000, 23, 100000]; 		//maximum of chunks in above specified time frame
tpMinWindow = 			[17, 100000, 1, 100000, 17, 100000, 1, 100000, 18, 100000, 1, 100000, 22, 100000, 1, 100000];		//[Flows]  //1000 says not relevant / no minimum transfer rate
tpMinChunks = 			[93, 1, 15, 1, 34, 1, 1, 1, 94, 1, 3, 1, 110, 1, 11, 1]; 		//minimum of chunks in above specified time frame; lower throughput limit
latency = 				[10, 10, 4, 10, 10, 10, 4, 10, 10, 10, 4, 10, 10, 10, 4, 10];	
jitter = 				[10, 10, 4, 10, 10, 10, 4, 10, 10, 10, 4, 10, 10, 10, 4, 10];

hysteresis = 500;
importance = [
	[5, 0, 20, 8, 7, 0, 20, 9, 9, 0, 20, 8, 6, 0, 20, 9],	//deadline
	[5, 0, 10, 9, 2, 0, 10, 9, 1, 0, 10, 8, 1, 0, 10, 7],	//start time
	[, , , , , , , , , , , , , , , ],	//throughput upper bound
	[8, 0, 50, 0, 8, 0, 50, 0, 6, 0, 50, 0, 7, 0, 50, 0],	//throughput lower bound
	[6, 4, 6, 18, 5, 3, 3, 12, 4, 4, 6, 17, 5, 3, 5, 16],	//unsched
	[0, 0, 7, 0, 0, 0, 7, 0, 0, 0, 7, 0, 0, 0, 9, 0],	//latency
	[0, 0, 8, 0, 0, 0, 8, 0, 0, 0, 8, 0, 0, 0, 8, 0]	//jitter
]; //[ImportanceTypes, Flows]

//user profiles
userImportance = [6, 1, 8, 6, 8, 1, 11, 7, 6, 2, 9, 10, 6, 3, 8, 10]; //[Flows]
costImp = 15; //former willingness to pay is now inversely proportional value: cost importance 
 
